c description: Graph 4-Colorability of graph: 
c generator: CNFgen (0.9.0)
c copyright: (C) 2012-2020 Massimo Lauria <massimo.lauria@uniroma1.it>
c url: https://massimolauria.net/cnfgen
c
p cnf 80 380
1 2 3 4 0
-1 -2 0
-1 -3 0
-1 -4 0
-2 -3 0
-2 -4 0
-3 -4 0
5 6 7 8 0
-5 -6 0
-5 -7 0
-5 -8 0
-6 -7 0
-6 -8 0
-7 -8 0
9 10 11 12 0
-9 -10 0
-9 -11 0
-9 -12 0
-10 -11 0
-10 -12 0
-11 -12 0
13 14 15 16 0
-13 -14 0
-13 -15 0
-13 -16 0
-14 -15 0
-14 -16 0
-15 -16 0
17 18 19 20 0
-17 -18 0
-17 -19 0
-17 -20 0
-18 -19 0
-18 -20 0
-19 -20 0
21 22 23 24 0
-21 -22 0
-21 -23 0
-21 -24 0
-22 -23 0
-22 -24 0
-23 -24 0
25 26 27 28 0
-25 -26 0
-25 -27 0
-25 -28 0
-26 -27 0
-26 -28 0
-27 -28 0
29 30 31 32 0
-29 -30 0
-29 -31 0
-29 -32 0
-30 -31 0
-30 -32 0
-31 -32 0
33 34 35 36 0
-33 -34 0
-33 -35 0
-33 -36 0
-34 -35 0
-34 -36 0
-35 -36 0
37 38 39 40 0
-37 -38 0
-37 -39 0
-37 -40 0
-38 -39 0
-38 -40 0
-39 -40 0
41 42 43 44 0
-41 -42 0
-41 -43 0
-41 -44 0
-42 -43 0
-42 -44 0
-43 -44 0
45 46 47 48 0
-45 -46 0
-45 -47 0
-45 -48 0
-46 -47 0
-46 -48 0
-47 -48 0
49 50 51 52 0
-49 -50 0
-49 -51 0
-49 -52 0
-50 -51 0
-50 -52 0
-51 -52 0
53 54 55 56 0
-53 -54 0
-53 -55 0
-53 -56 0
-54 -55 0
-54 -56 0
-55 -56 0
57 58 59 60 0
-57 -58 0
-57 -59 0
-57 -60 0
-58 -59 0
-58 -60 0
-59 -60 0
61 62 63 64 0
-61 -62 0
-61 -63 0
-61 -64 0
-62 -63 0
-62 -64 0
-63 -64 0
65 66 67 68 0
-65 -66 0
-65 -67 0
-65 -68 0
-66 -67 0
-66 -68 0
-67 -68 0
69 70 71 72 0
-69 -70 0
-69 -71 0
-69 -72 0
-70 -71 0
-70 -72 0
-71 -72 0
73 74 75 76 0
-73 -74 0
-73 -75 0
-73 -76 0
-74 -75 0
-74 -76 0
-75 -76 0
77 78 79 80 0
-77 -78 0
-77 -79 0
-77 -80 0
-78 -79 0
-78 -80 0
-79 -80 0
-1 -9 0
-2 -10 0
-3 -11 0
-4 -12 0
-1 -17 0
-2 -18 0
-3 -19 0
-4 -20 0
-1 -21 0
-2 -22 0
-3 -23 0
-4 -24 0
-1 -41 0
-2 -42 0
-3 -43 0
-4 -44 0
-1 -69 0
-2 -70 0
-3 -71 0
-4 -72 0
-5 -13 0
-6 -14 0
-7 -15 0
-8 -16 0
-5 -29 0
-6 -30 0
-7 -31 0
-8 -32 0
-5 -41 0
-6 -42 0
-7 -43 0
-8 -44 0
-5 -45 0
-6 -46 0
-7 -47 0
-8 -48 0
-5 -49 0
-6 -50 0
-7 -51 0
-8 -52 0
-5 -53 0
-6 -54 0
-7 -55 0
-8 -56 0
-5 -69 0
-6 -70 0
-7 -71 0
-8 -72 0
-5 -73 0
-6 -74 0
-7 -75 0
-8 -76 0
-9 -13 0
-10 -14 0
-11 -15 0
-12 -16 0
-9 -21 0
-10 -22 0
-11 -23 0
-12 -24 0
-9 -29 0
-10 -30 0
-11 -31 0
-12 -32 0
-9 -33 0
-10 -34 0
-11 -35 0
-12 -36 0
-9 -37 0
-10 -38 0
-11 -39 0
-12 -40 0
-9 -53 0
-10 -54 0
-11 -55 0
-12 -56 0
-9 -61 0
-10 -62 0
-11 -63 0
-12 -64 0
-9 -73 0
-10 -74 0
-11 -75 0
-12 -76 0
-13 -21 0
-14 -22 0
-15 -23 0
-16 -24 0
-13 -33 0
-14 -34 0
-15 -35 0
-16 -36 0
-13 -41 0
-14 -42 0
-15 -43 0
-16 -44 0
-13 -45 0
-14 -46 0
-15 -47 0
-16 -48 0
-13 -65 0
-14 -66 0
-15 -67 0
-16 -68 0
-17 -41 0
-18 -42 0
-19 -43 0
-20 -44 0
-17 -49 0
-18 -50 0
-19 -51 0
-20 -52 0
-17 -69 0
-18 -70 0
-19 -71 0
-20 -72 0
-21 -37 0
-22 -38 0
-23 -39 0
-24 -40 0
-21 -61 0
-22 -62 0
-23 -63 0
-24 -64 0
-25 -29 0
-26 -30 0
-27 -31 0
-28 -32 0
-25 -61 0
-26 -62 0
-27 -63 0
-28 -64 0
-25 -77 0
-26 -78 0
-27 -79 0
-28 -80 0
-29 -33 0
-30 -34 0
-31 -35 0
-32 -36 0
-29 -57 0
-30 -58 0
-31 -59 0
-32 -60 0
-29 -61 0
-30 -62 0
-31 -63 0
-32 -64 0
-29 -69 0
-30 -70 0
-31 -71 0
-32 -72 0
-29 -77 0
-30 -78 0
-31 -79 0
-32 -80 0
-33 -45 0
-34 -46 0
-35 -47 0
-36 -48 0
-33 -57 0
-34 -58 0
-35 -59 0
-36 -60 0
-33 -61 0
-34 -62 0
-35 -63 0
-36 -64 0
-37 -65 0
-38 -66 0
-39 -67 0
-40 -68 0
-37 -69 0
-38 -70 0
-39 -71 0
-40 -72 0
-37 -73 0
-38 -74 0
-39 -75 0
-40 -76 0
-41 -65 0
-42 -66 0
-43 -67 0
-44 -68 0
-41 -69 0
-42 -70 0
-43 -71 0
-44 -72 0
-45 -57 0
-46 -58 0
-47 -59 0
-48 -60 0
-45 -73 0
-46 -74 0
-47 -75 0
-48 -76 0
-49 -61 0
-50 -62 0
-51 -63 0
-52 -64 0
-49 -65 0
-50 -66 0
-51 -67 0
-52 -68 0
-49 -73 0
-50 -74 0
-51 -75 0
-52 -76 0
-53 -73 0
-54 -74 0
-55 -75 0
-56 -76 0
-57 -61 0
-58 -62 0
-59 -63 0
-60 -64 0
-57 -65 0
-58 -66 0
-59 -67 0
-60 -68 0
-57 -69 0
-58 -70 0
-59 -71 0
-60 -72 0
-57 -77 0
-58 -78 0
-59 -79 0
-60 -80 0
-61 -65 0
-62 -66 0
-63 -67 0
-64 -68 0
-61 -69 0
-62 -70 0
-63 -71 0
-64 -72 0
-73 -77 0
-74 -78 0
-75 -79 0
-76 -80 0